CPXPARAM_MIP_Cuts_Disjunctive#P15#0#CPXPARAM_MIP_Cuts_Gomory#P18#0#1.612470#0.254834
CPXPARAM_MIP_Cuts_Disjunctive#P15#0#CPXPARAM_MIP_Cuts_Gomory#P18#1#1.698908#0.268494
CPXPARAM_MIP_Cuts_Disjunctive#P15#0#CPXPARAM_MIP_Cuts_Gomory#P18#2#2.119545#0.334972
CPXPARAM_MIP_Cuts_Disjunctive#P15#0#CPXPARAM_MIP_Cuts_Implied#P19#0#2.918940#0.461307
CPXPARAM_MIP_Cuts_Disjunctive#P15#0#CPXPARAM_MIP_Cuts_Implied#P19#1#1.612431#0.254828
CPXPARAM_MIP_Cuts_Disjunctive#P15#0#CPXPARAM_MIP_Cuts_Implied#P19#2#1.032694#0.163206
CPXPARAM_MIP_Cuts_Disjunctive#P15#0#CPXPARAM_MIP_Cuts_PathCut#P21#0#2.701477#0.426940
CPXPARAM_MIP_Cuts_Disjunctive#P15#0#CPXPARAM_MIP_Cuts_PathCut#P21#1#1.049198#0.165815
CPXPARAM_MIP_Cuts_Disjunctive#P15#0#CPXPARAM_MIP_Cuts_PathCut#P21#2#2.637063#0.416760
CPXPARAM_MIP_Cuts_Disjunctive#P15#1#CPXPARAM_MIP_Cuts_Gomory#P18#0#3.449300#0.545125
CPXPARAM_MIP_Cuts_Disjunctive#P15#1#CPXPARAM_MIP_Cuts_Gomory#P18#1#3.587785#0.567011
CPXPARAM_MIP_Cuts_Disjunctive#P15#1#CPXPARAM_MIP_Cuts_Gomory#P18#2#2.317585#0.366270
CPXPARAM_MIP_Cuts_Disjunctive#P15#1#CPXPARAM_MIP_Cuts_Implied#P19#0#3.329587#0.526206
CPXPARAM_MIP_Cuts_Disjunctive#P15#1#CPXPARAM_MIP_Cuts_Implied#P19#1#3.324120#0.525342
CPXPARAM_MIP_Cuts_Disjunctive#P15#1#CPXPARAM_MIP_Cuts_Implied#P19#2#2.885576#0.456035
CPXPARAM_MIP_Cuts_Disjunctive#P15#1#CPXPARAM_MIP_Cuts_PathCut#P21#0#1.690893#0.267228
CPXPARAM_MIP_Cuts_Disjunctive#P15#1#CPXPARAM_MIP_Cuts_PathCut#P21#1#3.883529#0.613751
CPXPARAM_MIP_Cuts_Disjunctive#P15#1#CPXPARAM_MIP_Cuts_PathCut#P21#2#4.070053#0.643229
CPXPARAM_MIP_Cuts_Disjunctive#P15#2#CPXPARAM_MIP_Cuts_Gomory#P18#1#2.692670#0.425548
CPXPARAM_MIP_Cuts_Disjunctive#P15#2#CPXPARAM_MIP_Cuts_Gomory#P18#2#4.944353#0.781403
CPXPARAM_MIP_Cuts_Disjunctive#P15#2#CPXPARAM_MIP_Cuts_Implied#P19#0#2.611729#0.412756
CPXPARAM_MIP_Cuts_Disjunctive#P15#2#CPXPARAM_MIP_Cuts_Implied#P19#1#2.491322#0.393727
CPXPARAM_MIP_Cuts_Disjunctive#P15#2#CPXPARAM_MIP_Cuts_Implied#P19#2#1.347677#0.212986
CPXPARAM_MIP_Cuts_Disjunctive#P15#2#CPXPARAM_MIP_Cuts_PathCut#P21#0#1.914667#0.302593
CPXPARAM_MIP_Cuts_Disjunctive#P15#2#CPXPARAM_MIP_Cuts_PathCut#P21#1#1.686229#0.266491
CPXPARAM_MIP_Cuts_Disjunctive#P15#2#CPXPARAM_MIP_Cuts_PathCut#P21#2#1.552421#0.245344
CPXPARAM_MIP_Cuts_Disjunctive#P15#3#CPXPARAM_MIP_Cuts_Gomory#P18#0#1.913272#0.302372
CPXPARAM_MIP_Cuts_Disjunctive#P15#3#CPXPARAM_MIP_Cuts_Gomory#P18#1#6.327536#1.000000
CPXPARAM_MIP_Cuts_Disjunctive#P15#3#CPXPARAM_MIP_Cuts_Gomory#P18#2#4.610024#0.728565
